81
125
100	3
99	5
98	4
97	3
96	2
95	2
94	2
93	3
92	4
91	2
89	1
88	1
87	3
86	1
85	3
84	1
83	3
82	3
81	1
79	5
78	3
77	2
76	3
75	2
74	1
73	1
72	5
71	2
70	2
69	2
68	2
67	2
66	2
65	2
64	1
63	1
62	3
61	1
60	2
59	1
58	2
57	1
56	3
55	2
54	1
53	1
51	3
50	2
49	4
48	4
47	5
44	2
43	3
42	2
41	4
40	1
39	4
38	1
36	2
35	4
33	3
32	4
31	4
30	3
29	3
28	2
27	5
26	2
25	4
24	2
23	1
22	2
21	1
20	1
19	1
18	1
17	1
16	5
15	4
13	7
12	1
